{"lblp_lower": [288.18281541307545, 351.37384843982176, 356.6500000000001, 360.20000000000005], "cuttingPlaneBendInfo": [{"tot_cut_value": 0, "TOT_gen_cut": 0, "tot_time_opt": 0, "max_time_opt": 0}, {"tot_cut_value": 0, "TOT_gen_cut": 0, "tot_time_opt": 0, "max_time_opt": 0}, {"tot_cut_value": 0, "TOT_gen_cut": 0, "tot_time_opt": 0, "max_time_opt": 0}, {"tot_cut_value": 0, "TOT_gen_cut": 0, "tot_time_opt": 0, "max_time_opt": 0}], "time_compress": [0, 0, 0, 0], "ub_lp": [420.60000000000014, 360.20000000000005, 360.20000000000005, 360.20000000000005], "prob_sizes_at_start": [{"timeGraph": 52, "ngGraph": 27}, {"timeGraph": 31, "ngGraph": 34}, {"timeGraph": 26, "ngGraph": 30}, {"timeGraph": 19, "ngGraph": 25}], "prob_sizes_after_compress": [{"timeGraph": 17, "ngGraph": 12}, {"timeGraph": 16, "ngGraph": 18}, {"timeGraph": 12, "ngGraph": 16}, {"timeGraph": 6, "ngGraph": 14}], "prob_sizes_after_split": [{"timeGraph": 31, "ngGraph": 34}, {"timeGraph": 26, "ngGraph": 30}, {"timeGraph": 19, "ngGraph": 25}, {"timeGraph": 6, "ngGraph": 14}], "did_compress": [true, true, true, true], "lp_time_project": [0.026372909545898438, 0.010660886764526367, 0.008848905563354492, 0.008767843246459961], "lp_time_LB": [0.010802984237670898, 0.00580596923828125, 0.0040798187255859375, 0.0029168128967285156], "ilp_time": [], "history_of_graphs_by_iter": [], "ROOT_LP_PRIOR_ADDING_CUTS": 360.20000000000005, "OUR_ilp_objective": 360.20000000000005, "OUR_MIP_Lower_Bound": 360.20000000000005, "OUR_ilp_time": 0.003381967544555664, "OUR_gurobi_MILP_str": "Gurobi Optimizer version 12.0.1 build v12.0.1rc0 (mac64[arm] - Darwin 24.5.0 24F74)\n\nCPU model: Apple M1\nThread count: 8 physical cores, 8 logical processors, using up to 8 threads\n\nNon-default parameters:\nTimeLimit  1000\n\nWLS license 2690165 - registered to Optym\nOptimize a model with 1659 rows, 635 columns and 5559 nonzeros\nModel fingerprint: 0x38a31416\nVariable types: 63 continuous, 572 integer (519 binary)\nCoefficient statistics:\n  Matrix range     [8e-01, 6e+02]\n  Objective range  [2e+00, 8e+01]\n  Bounds range     [1e+00, 9e+02]\n  RHS range        [1e+00, 6e+02]\nUsing branch priorities.\nPresolve removed 1646 rows and 626 columns\nPresolve time: 0.00s\nPresolved: 13 rows, 9 columns, 43 nonzeros\nVariable types: 6 continuous, 3 integer (3 binary)\nFound heuristic solution: objective 360.2000000\n\nExplored 0 nodes (0 simplex iterations) in 0.00 seconds (0.00 work units)\nThread count was 8 (of 8 available processors)\n\nSolution count 1: 360.2 \n\nOptimal solution found (tolerance 1.00e-04)\nBest objective 3.602000000000e+02, best bound 3.602000000000e+02, gap 0.0000%\n", "jy_opt": {"ParetoEps": 1e-05, "turn_off_time_windows": false, "deactivate_time_graph": false, "deactivate_demand_graph": false, "epsilon": 0.0001, "weight_slack_projector": 1e-05, "weight_compress": 0.01, "num_cust_use": 25, "dem_step_sz": 1, "time_step_sz": 1, "use_compression": 1, "max_iterations_loop_compress_project": 50, "do_round_dist_times": 1, "my_shift_bet_time_win": 0.0001, "num_terms_per_bin_init_construct": 100, "allOneBig_init": 0, "min_inc_2_compress": 1e-05, "save_graph_each_iter": 0, "use_Xpress": 0, "use_ineq": 1, "xpress_file_loc": "/Users/julian/Documents/FICO_Xpress_Config/xpauth.xpr", "run_baseline": 0, "verbose": 0, "use_NG_graph": 1, "num_NG": 6, "in_demo_mode": 0, "threshold_split": 0.1, "offset_cost_edge_project": 0, "use_classic_compress": 1, "use_classic_compress_last": 1, "num_thresh_split_projector": 1000, "lplb_solver": 4, "compresss_solver": 0, "proj_solver": 4, "use_julians_custom_lp_solver": 0, "do_ilp": 1, "roundingDiscretization_num_digits_keep": 3, "doExrtraRemovalEdgesLB": 0, "use_gurobi": 1, "max_ILP_time": 1000, "use_fancy_ng_graph": 1, "use_dem_graph": 0, "use_time_graph": 1, "num_multiplys_demand": 0, "DEBUG_ALLOW_DUMB_EDGES": 0, "add_all_ng_split_at_end": 0, "do_split_based_init": 0, "think_compress": [0], "use_delta_in_milp": 1, "use_delta_in_lp": 1, "turn_off_non_active_fg_project": 0, "use_new_valid_ineq": 0, "digit_mult_use": 10, "use_branch_on_g": true, "LAB_MP_ON": 0, "LAB_MP_neigh_use_power": 9, "LAB_MP_num_ineq_use": 10, "do_remove_actions_from_incumbant": true, "ub_use_remove": 360.2, "use_packing_in_construction": 1, "maxVarsAdd_in_ITER": 10, "use_ng_size_init": 0, "do_presolve": 0, "use_diving_ineq": 1, "BEND_MIN_LP_OBJECTIVE_CUT": 0.1, "BEND_USE_RAND": 0, "BEND_MAX_SIZE_CHOOSE_K": 230, "BEND_VAL_STOP_ADDING_CUTS": 100000000, "BEND_MY_SIZES_USE": [9], "NUMERICAL_BEND_OFFSET_COST_CUT": 0.0001, "NUMERICAL_BEND_EPSILON_MULT_PARETO_OBJ": 0.001, "NO_PARETO_NUMERICAL_BEND_OFFSET_COST_CUT": 0, "NO_PARETO_BEND_VAL_STOP_ADDING_CUTS": 1, "NO_PARETO_EPSILON_MAX_VAL_CON": 0.01, "BENDERS_NEIGH_SZ_USE": 9, "Actions_of_given_sol": [], "all_vars_binary": 1, "restore_after_each_step": 0, "use_ng": 1, "compress_solver": 1, "DEBUG_NG_turn_off_CLEAN": false, "max_nodes_split": Infinity}, "output_ilp_solution": {"delta_capRem_0": 6.0, "delta_timeRem_0": 287.0, "delta_capRem_1": 100.0, "delta_timeRem_1": 808.0, "delta_capRem_2": 7.0, "delta_timeRem_2": 369.0, "delta_capRem_3": 4.0, "delta_timeRem_3": 270.0, "delta_capRem_4": 97.0, "delta_timeRem_4": 767.0, "delta_capRem_5": 9.0, "delta_timeRem_5": 457.2, "delta_capRem_6": 11.0, "delta_timeRem_6": 540.0, "delta_capRem_7": 12.0, "delta_timeRem_7": 555.0, "delta_capRem_8": 8.0, "delta_timeRem_8": 469.0, "delta_capRem_9": 6.0, "delta_timeRem_9": 441.0, "delta_capRem_10": 12.0, "delta_timeRem_10": 645.0, "delta_capRem_11": 99.0, "delta_timeRem_11": 724.4, "delta_capRem_12": 3.0, "delta_timeRem_12": 307.0, "delta_capRem_13": 100.0, "delta_timeRem_13": 805.0, "delta_capRem_14": 14.0, "delta_timeRem_14": 666.0, "delta_capRem_15": 16.0, "delta_timeRem_15": 705.0, "delta_capRem_16": 2.0, "delta_timeRem_16": 137.0, "delta_capRem_17": 14.0, "delta_timeRem_17": 601.3, "delta_capRem_18": 12.0, "delta_timeRem_18": 586.0, "delta_capRem_19": 4.0, "delta_timeRem_19": 303.0, "delta_capRem_20": 15.0, "delta_timeRem_20": 625.0, "delta_capRem_21": 8.0, "delta_timeRem_21": 465.0, "delta_capRem_22": 18.0, "delta_timeRem_22": 759.0, "delta_capRem_23": 3.0, "delta_timeRem_23": 159.0, "delta_capRem_24": 2.0, "delta_timeRem_24": 56.0, "act_0_3": 1, "act_1_4": 1, "act_2_0": 1, "act_3_26": 1, "act_4_7": 1, "act_5_2": 1, "act_6_5": 1, "act_7_6": 1, "act_8_9": 1, "act_9_12": 1, "act_10_8": 1, "act_11_15": 1, "act_12_16": 1, "act_13_11": 1, "act_14_10": 1, "act_15_14": 1, "act_16_26": 1, "act_17_18": 1, "act_18_21": 1, "act_19_23": 1, "act_20_17": 1, "act_21_19": 1, "act_22_20": 1, "act_23_24": 1, "act_24_26": 1, "act_25_1": 1, "act_25_13": 1, "act_25_22": 1}, "Actions_of_given_sol": "none just used source and sink terms", "actions_used": ["act_0_3", "act_1_4", "act_2_0", "act_3_26", "act_4_7", "act_5_2", "act_6_5", "act_7_6", "act_8_9", "act_9_12", "act_10_8", "act_11_15", "act_12_16", "act_13_11", "act_14_10", "act_15_14", "act_16_26", "act_17_18", "act_18_21", "act_19_23", "act_20_17", "act_21_19", "act_22_20", "act_23_24", "act_24_26", "act_25_1", "act_25_13", "act_25_22"], "init_default_solution_is_empty": false, "objective_of_initial_sol": 1884.3999999999996, "my_paths": "[[25, 1, 4, 7, 6, 5, 2, 0, 3, 26], [25, 13, 11, 15, 14, 10, 8, 9, 12, 16, 26], [25, 22, 20, 17, 18, 21, 19, 23, 24, 26]]"}